(set-logic LIA)
(synth-fun inv ((speed Int) (throttle Int) ) Bool)

(declare-var speed Int)
(declare-var throttle Int)


(constraint (= (inv speed throttle) (and (>= speed throttle) (>= 11 (- speed 11)))))

(check-synth)